benchmarks_vrp/CMT11/min_c/CMT11_1.vrp
NAME: CMT11_1
TYPE: CVRP
COMMENT: 1042.11 - Cluster Nr.1
DIMENSION: 16
CAPACITY: 200
EDGE_WEIGHT_TYPE: EUC_2D
NODE_COORD_TYPE: TWOD_COORDS
NODE_COORD_SECTION: 
6 99 50
7 94 48
12 99 46
15 89 43
3 10 45
4 94 42
11 89 46
13 85 55
5 86 44
8 89 52
10 92 42
16 94 44
14 86 41
2 96 42
1 92 52
9 86 46
DEPOT_SECTION: 
3
-1
DEMAND_SECTION: 
12 4
10 10
8 16
4 11
3 0
6 21
13 17
15 20
11 14
2 5
5 14
9 12
14 18
7 13
1 9
16 7
EOF
