benchmarks_vrp/CMT11/min_c/CMT11_1.tour
NAME: CMT11_1 solution
TYPE: TOUR
TOUR_SECTION:
3 13 8 1 7 6 12 16 2 4 10 15 11 9 5 14 -1
-1
EOF